(set-logic QF_S)
(declare-fun var0 () String)
(declare-fun var1 () String)
(declare-fun var2 () String)
(declare-fun var3 () String)
(declare-fun var4 () String)
(declare-fun var5 () String)
(declare-fun var6 () String)
(declare-fun var7 () String)
(declare-fun var8 () String)
(declare-fun var9 () String)
(declare-fun var10 () String)
(declare-fun var11 () String)
(declare-fun var12 () String)
(declare-fun var13 () String)
(declare-fun var14 () String)
(declare-fun var15 () String)
(declare-fun var16 () String)
(declare-fun var17 () String)
(declare-fun var18 () String)
(declare-fun var19 () String)
(declare-fun var20 () String)
(declare-fun var21 () String)
(declare-fun var22 () String)
(declare-fun var23 () String)
(declare-fun var24 () String)
(declare-fun var25 () String)
(declare-fun var26 () String)
(declare-fun var27 () String)
(declare-fun var28 () String)
(declare-fun var29 () String)
(declare-fun var30 () String)
(declare-fun var31 () String)
(declare-fun var32 () String)
(declare-fun var33 () String)
(declare-fun var34 () String)
(declare-fun var35 () String)
(declare-fun var36 () String)
(declare-fun var37 () String)
(declare-fun var38 () String)
(declare-fun var39 () String)
(declare-fun var40 () String)
(declare-fun var41 () String)
(declare-fun var42 () String)
(declare-fun var43 () String)
(declare-fun var44 () String)
(declare-fun var45 () String)
(declare-fun var46 () String)
(declare-fun var47 () String)
(declare-fun var48 () String)
(declare-fun var49 () String)
(declare-fun var50 () String)
(declare-fun var51 () String)
(declare-fun var52 () String)
(declare-fun var53 () String)
(declare-fun var54 () String)
(declare-fun var55 () String)
(declare-fun var56 () String)
(declare-fun var57 () String)
(declare-fun var58 () String)
(declare-fun var59 () String)
(declare-fun var60 () String)
(assert (= var0 (str.++ var1 var2)))
(assert (= var2 (str.++ var3 var4)))
(assert (= var4 (str.++ var5 var6)))
(assert (= var6 (str.++ var7 var8)))
(assert (= var8 (str.++ var9 var10)))
(assert (= var10 (str.++ var11 var12)))
(assert (= var12 (str.++ var13 var14)))
(assert (= var14 (str.++ var15 var16)))
(assert (= var16 (str.++ var17 var18)))
(assert (= var18 (str.++ var19 var20)))
(assert (= var20 (str.++ var21 var22)))
(assert (= var22 (str.++ var23 var24)))
(assert (= var24 (str.++ var25 var26)))
(assert (= var26 (str.++ var27 var28)))
(assert (= var28 (str.++ var29 var30)))
(assert (= var30 (str.++ var31 var32)))
(assert (= var32 (str.++ var33 var34)))
(assert (= var34 (str.++ var35 var36)))
(assert (= var36 (str.++ var37 var38)))
(assert (= var38 (str.++ var39 var40)))
(assert (= var40 (str.++ var41 var42)))
(assert (= var42 (str.++ var43 var44)))
(assert (= var44 (str.++ var45 var46)))
(assert (= var46 (str.++ var47 var48)))
(assert (= var48 (str.++ var49 var50)))
(assert (= var50 (str.++ var51 var52)))
(assert (= var52 (str.++ var53 var54)))
(assert (= var54 (str.++ var55 var56)))
(assert (= var56 (str.++ var57 var58)))
(assert (= var58 (str.++ var59 var60)))
(assert (= var0 "solution"))
(assert (= "|" (str.at var38 966)))
(assert (= ";" (str.at var41 295)))
(assert (= "|" (str.at var34 92)))
(assert (= "$" (str.at var24 106)))
(assert (= "." (str.at var56 911)))
(assert (= "Y" (str.at var55 35)))
(assert (= ";" (str.at var42 456)))
(assert (= "," (str.at var31 486)))
(assert (= "}" (str.at var23 136)))
(assert (= "." (str.at var58 506)))
(assert (= "-" (str.at var26 919)))
(assert (= "Z" (str.at var38 976)))
(assert (= "*" (str.at var26 781)))
(assert (= "P" (str.at var19 888)))
(assert (= "o" (str.at var10 508)))
(assert (= ">" (str.at var14 147)))
(assert (= """" (str.at var27 955)))
(assert (= "k" (str.at var51 472)))
(assert (= "3" (str.at var14 986)))
(assert (= "W" (str.at var18 289)))
(assert (= "_" (str.at var56 243)))
(assert (= "." (str.at var41 287)))
(assert (= "p" (str.at var8 686)))
(assert (= "o" (str.at var40 152)))
(assert (= "-" (str.at var5 707)))
(assert (= "_" (str.at var57 621)))
(assert (= "2" (str.at var53 176)))
(assert (= "E" (str.at var28 753)))
(assert (= "X" (str.at var36 422)))
(assert (= "~" (str.at var30 127)))
(assert (= "e" (str.at var3 444)))
(assert (= "\\" (str.at var31 430)))
(assert (= "D" (str.at var9 70)))
(assert (= "=" (str.at var47 46)))
(assert (= "(" (str.at var54 143)))
(assert (= "b" (str.at var51 375)))
(assert (= "X" (str.at var58 341)))
(assert (= "2" (str.at var57 994)))
(assert (= "C" (str.at var19 634)))
(assert (= """" (str.at var4 767)))
(assert (= "1" (str.at var20 266)))
(assert (= "(" (str.at var6 371)))
(assert (= "[" (str.at var52 739)))
(assert (= "l" (str.at var54 641)))
(assert (= "K" (str.at var58 382)))
(assert (= "g" (str.at var53 937)))
(assert (= "o" (str.at var39 743)))
(assert (= "$" (str.at var42 699)))
(assert (= "<" (str.at var54 232)))
(assert (= "Y" (str.at var38 817)))
(assert (= ":" (str.at var39 355)))
(assert (= "s" (str.at var30 667)))
(assert (= "{" (str.at var52 239)))
(assert (= "Z" (str.at var44 561)))
(assert (= "?" (str.at var59 618)))
(assert (= "J" (str.at var59 278)))
(assert (= "Z" (str.at var0 745)))
(assert (= "O" (str.at var49 799)))
(assert (= "H" (str.at var51 826)))
(assert (= "%" (str.at var53 86)))
(assert (= "l" (str.at var20 112)))
(assert (= "m" (str.at var9 648)))
(assert (= "2" (str.at var29 774)))
(assert (= "o" (str.at var40 989)))
(assert (= "&" (str.at var45 744)))
(assert (= "4" (str.at var23 261)))
(assert (= "3" (str.at var14 843)))
(assert (= "w" (str.at var34 4)))
(assert (= "j" (str.at var9 408)))
(assert (= "p" (str.at var13 292)))
(assert (= ";" (str.at var56 721)))
(assert (= "5" (str.at var29 483)))
(assert (= "%" (str.at var56 166)))
(assert (= "B" (str.at var4 282)))
(assert (= "6" (str.at var0 919)))
(assert (= "V" (str.at var0 904)))
(assert (= "c" (str.at var30 509)))
(assert (= "^" (str.at var47 648)))
(assert (= "!" (str.at var44 781)))
(assert (= "Z" (str.at var10 252)))
(assert (= "|" (str.at var27 585)))
(assert (= "H" (str.at var19 408)))
(assert (= "'" (str.at var32 124)))
(assert (= "q" (str.at var48 710)))
(assert (= "1" (str.at var31 324)))
(assert (= "I" (str.at var55 946)))
(assert (= "\\" (str.at var29 641)))
(assert (= "d" (str.at var41 154)))
(assert (= "R" (str.at var59 505)))
(assert (= "/" (str.at var19 104)))
(assert (= "G" (str.at var5 619)))
(assert (= "1" (str.at var46 227)))
(assert (= "." (str.at var22 223)))
(assert (= "x" (str.at var37 59)))
(assert (= "7" (str.at var31 48)))
(assert (= "L" (str.at var25 287)))
(assert (= "&" (str.at var13 956)))
(assert (= ">" (str.at var30 893)))
(assert (= "l" (str.at var58 433)))
(assert (= "p" (str.at var4 889)))
(assert (= "r" (str.at var20 92)))
(assert (= "B" (str.at var1 633)))
(assert (= "O" (str.at var59 16)))
(assert (= "!" (str.at var47 138)))
(assert (= "x" (str.at var44 769)))
(assert (= "6" (str.at var16 308)))
(assert (= "{" (str.at var11 128)))
(assert (= "C" (str.at var7 799)))
(assert (= "U" (str.at var13 409)))
(assert (= "$" (str.at var35 690)))
(assert (= "U" (str.at var51 698)))
(assert (= "q" (str.at var46 475)))
(assert (= "F" (str.at var7 721)))
(assert (= "z" (str.at var10 40)))
(assert (= "X" (str.at var2 643)))
(assert (= "m" (str.at var51 59)))
(assert (= "J" (str.at var14 629)))
(assert (= "*" (str.at var4 917)))
(assert (= "M" (str.at var8 890)))
(assert (= "<" (str.at var29 642)))
(assert (= "=" (str.at var5 929)))
(assert (= "S" (str.at var60 311)))
(assert (= "V" (str.at var19 5)))
(assert (= "[" (str.at var23 829)))
(assert (= "?" (str.at var0 155)))
(assert (= "Y" (str.at var49 604)))
(assert (= "2" (str.at var59 310)))
(assert (= "/" (str.at var47 235)))
(assert (= "@" (str.at var44 565)))
(assert (= "=" (str.at var56 921)))
(assert (= "7" (str.at var43 661)))
(assert (= "N" (str.at var11 8)))
(assert (= "!" (str.at var50 333)))
(assert (= "W" (str.at var54 203)))
(assert (= "E" (str.at var10 167)))
(assert (= "=" (str.at var15 967)))
(assert (= "4" (str.at var7 436)))
(assert (= "B" (str.at var31 900)))
(assert (= "V" (str.at var6 358)))
(assert (= "\\" (str.at var32 100)))
(assert (= "F" (str.at var58 336)))
(assert (= "^" (str.at var22 7)))
(assert (= "4" (str.at var21 339)))
(assert (= "O" (str.at var26 95)))
(assert (= "c" (str.at var40 606)))
(assert (= "," (str.at var37 570)))
(assert (= "j" (str.at var29 65)))
(assert (= "O" (str.at var40 134)))
(assert (= "#" (str.at var31 106)))
(assert (= "|" (str.at var30 79)))
(assert (= "!" (str.at var19 545)))
(assert (= "<" (str.at var45 10)))
(assert (= "f" (str.at var5 925)))
(assert (= "6" (str.at var9 238)))
(assert (= "g" (str.at var30 199)))
(assert (= "c" (str.at var17 449)))
(assert (= "P" (str.at var39 937)))
(assert (= "?" (str.at var47 288)))
(assert (= """" (str.at var42 906)))
(assert (= "@" (str.at var51 913)))
(assert (= ">" (str.at var17 850)))
(assert (= "\\" (str.at var18 339)))
(assert (= "J" (str.at var49 167)))
(assert (= "{" (str.at var4 853)))
(assert (= "|" (str.at var55 215)))
(assert (= "A" (str.at var27 182)))
(assert (= "l" (str.at var52 82)))
(assert (= "=" (str.at var0 733)))
(assert (= "K" (str.at var13 309)))
(assert (= "h" (str.at var9 657)))
(assert (= "v" (str.at var51 705)))
(assert (= "D" (str.at var31 366)))
(assert (= ";" (str.at var19 682)))
(assert (= "(" (str.at var36 235)))
(assert (= "B" (str.at var56 289)))
(assert (= "$" (str.at var52 46)))
(assert (= "p" (str.at var51 510)))
(assert (= "P" (str.at var44 390)))
(assert (= "M" (str.at var20 689)))
(assert (= "1" (str.at var8 900)))
(assert (= "R" (str.at var52 78)))
(assert (= "I" (str.at var30 20)))
(assert (= "D" (str.at var20 794)))
(assert (= "#" (str.at var9 297)))
(assert (= "j" (str.at var19 904)))
(assert (= "c" (str.at var60 109)))
(assert (= """" (str.at var10 366)))
(assert (= "P" (str.at var42 249)))
(assert (= "=" (str.at var37 975)))
(assert (= "[" (str.at var53 397)))
(assert (= "\\" (str.at var44 964)))
(assert (= "r" (str.at var49 104)))
(assert (= "f" (str.at var14 878)))
(assert (= "E" (str.at var57 126)))
(assert (= "v" (str.at var56 995)))
(assert (= "\\" (str.at var16 150)))
(assert (= "^" (str.at var23 471)))
(assert (= "D" (str.at var36 226)))
(assert (= "8" (str.at var20 91)))
(assert (= ")" (str.at var42 304)))
(assert (= "E" (str.at var26 586)))
(assert (= "n" (str.at var9 649)))
(assert (= "4" (str.at var47 29)))
(assert (= "P" (str.at var0 84)))
(assert (= "&" (str.at var60 332)))
(assert (= "c" (str.at var42 276)))
(assert (= "7" (str.at var28 210)))
(assert (= ":" (str.at var0 790)))
(assert (= "x" (str.at var54 255)))
(assert (= "7" (str.at var51 299)))
(assert (= "%" (str.at var37 215)))
(assert (= "}" (str.at var0 390)))
(assert (= "j" (str.at var47 508)))
(assert (= "i" (str.at var2 729)))
(assert (= "f" (str.at var50 1)))
(assert (= "k" (str.at var5 294)))
(assert (= "C" (str.at var36 217)))
(assert (= ":" (str.at var46 351)))
(assert (= "'" (str.at var21 195)))
(assert (= "J" (str.at var29 293)))
(assert (= ">" (str.at var9 958)))
(assert (= "%" (str.at var15 366)))
(assert (= "U" (str.at var0 109)))
(assert (= "W" (str.at var51 600)))
(assert (= "R" (str.at var11 894)))
(assert (= "P" (str.at var47 952)))
(assert (= "o" (str.at var42 516)))
(assert (= "h" (str.at var29 882)))
(assert (= "z" (str.at var20 443)))
(assert (= "<" (str.at var55 285)))
(assert (= "u" (str.at var55 650)))
(assert (= "r" (str.at var39 147)))
(assert (= "v" (str.at var51 454)))
(assert (= "e" (str.at var20 896)))
(assert (= "n" (str.at var51 759)))
(assert (= "5" (str.at var19 551)))
(assert (= "R" (str.at var35 809)))
(assert (= "e" (str.at var51 195)))
(assert (= "5" (str.at var53 645)))
(assert (= "5" (str.at var3 746)))
(assert (= "[" (str.at var33 955)))
(assert (= "?" (str.at var3 452)))
(assert (= "]" (str.at var55 220)))
(assert (= "c" (str.at var5 178)))
(assert (= "v" (str.at var25 825)))
(assert (= ":" (str.at var51 421)))
(assert (= "a" (str.at var2 39)))
(assert (= "T" (str.at var20 635)))
(assert (= "%" (str.at var10 401)))
(assert (= "P" (str.at var20 720)))
(assert (= "N" (str.at var4 523)))
(assert (= "-" (str.at var15 491)))
(assert (= "&" (str.at var39 920)))
(assert (= "D" (str.at var47 783)))
(assert (= "/" (str.at var50 705)))
(assert (= "4" (str.at var52 512)))
(assert (= "8" (str.at var13 417)))
(assert (= "]" (str.at var39 351)))
(assert (= "P" (str.at var53 78)))
(assert (= "`" (str.at var38 655)))
(assert (= "|" (str.at var20 479)))
(assert (= "q" (str.at var16 687)))
(assert (= "#" (str.at var22 670)))
(assert (= "\\" (str.at var31 117)))
(assert (= "k" (str.at var21 48)))
(assert (= "|" (str.at var0 772)))
(assert (= "V" (str.at var12 55)))
(assert (= "&" (str.at var56 922)))
(assert (= "/" (str.at var7 181)))
(assert (= "I" (str.at var42 806)))
(assert (= "H" (str.at var11 412)))
(assert (= "(" (str.at var60 61)))
(assert (= "B" (str.at var51 325)))
(assert (= "*" (str.at var37 232)))
(assert (= "{" (str.at var24 464)))
(assert (= "Q" (str.at var52 862)))
(assert (= """" (str.at var16 198)))
(assert (= "}" (str.at var10 345)))
(assert (= "l" (str.at var24 250)))
(assert (= "N" (str.at var20 128)))
(assert (= "-" (str.at var44 117)))
(assert (= "P" (str.at var57 579)))
(assert (= "K" (str.at var43 895)))
(assert (= "I" (str.at var47 31)))
(assert (= "'" (str.at var19 700)))
(assert (= "~" (str.at var29 823)))
(assert (= "M" (str.at var60 582)))
(assert (= "r" (str.at var26 590)))
(assert (= "?" (str.at var23 71)))
(assert (= "@" (str.at var44 190)))
(assert (= "1" (str.at var0 259)))
(assert (= "2" (str.at var19 754)))
(assert (= "p" (str.at var41 424)))
(assert (= "?" (str.at var34 426)))
(assert (= "l" (str.at var55 862)))
(assert (= "F" (str.at var45 950)))
(assert (= "o" (str.at var7 850)))
(assert (= "*" (str.at var14 59)))
(assert (= "\\" (str.at var53 676)))
(assert (= "C" (str.at var53 614)))
(assert (= "/" (str.at var54 810)))
(assert (= "]" (str.at var40 986)))
(assert (= "b" (str.at var10 533)))
(assert (= "-" (str.at var57 497)))
(assert (= "+" (str.at var48 309)))
(assert (= "+" (str.at var54 504)))
(assert (= "7" (str.at var36 83)))
(assert (= "i" (str.at var33 597)))
(assert (= "u" (str.at var6 441)))
(assert (= "6" (str.at var18 114)))
(assert (= "~" (str.at var8 539)))
(assert (= "9" (str.at var25 82)))
(assert (= "S" (str.at var0 293)))
(assert (= "%" (str.at var0 748)))
(assert (= "^" (str.at var15 960)))
(assert (= "3" (str.at var42 283)))
(assert (= "v" (str.at var21 297)))
(assert (= "m" (str.at var55 996)))
(assert (= "I" (str.at var22 48)))
(assert (= "+" (str.at var32 798)))
(assert (= "N" (str.at var33 214)))
(assert (= ">" (str.at var0 633)))
(assert (= "^" (str.at var39 545)))
(assert (= "G" (str.at var19 385)))
(assert (= "$" (str.at var60 704)))
(assert (= "^" (str.at var60 733)))
(assert (= "s" (str.at var53 501)))
(assert (= "," (str.at var25 368)))
(assert (= "G" (str.at var51 518)))
(assert (= "Y" (str.at var43 858)))
(assert (= "C" (str.at var6 172)))
(assert (= ";" (str.at var52 781)))
(assert (= "T" (str.at var12 113)))
(assert (= "A" (str.at var19 909)))
(assert (= "%" (str.at var54 407)))
(assert (= "*" (str.at var21 591)))
(assert (= "~" (str.at var27 128)))
(assert (= "S" (str.at var11 245)))
(assert (= "u" (str.at var20 395)))
(assert (= "+" (str.at var0 623)))
(assert (= "P" (str.at var45 55)))
(assert (= "]" (str.at var60 397)))
(assert (= """" (str.at var5 493)))
(assert (= "y" (str.at var3 572)))
(assert (= "v" (str.at var58 919)))
(assert (= "n" (str.at var48 613)))
(assert (= ")" (str.at var12 806)))
(assert (= "<" (str.at var34 522)))
(assert (= "V" (str.at var59 228)))
(assert (= "F" (str.at var60 664)))
(assert (= "O" (str.at var11 697)))
(assert (= "c" (str.at var24 7)))
(assert (= "d" (str.at var37 713)))
(assert (= "V" (str.at var45 148)))
(assert (= "'" (str.at var20 456)))
(assert (= "-" (str.at var44 305)))
(assert (= "4" (str.at var3 517)))
(assert (= "k" (str.at var50 573)))
(assert (= "j" (str.at var47 407)))
(assert (= "o" (str.at var36 413)))
(assert (= "x" (str.at var12 498)))
(assert (= "*" (str.at var29 997)))
(assert (= "i" (str.at var49 371)))
(assert (= "c" (str.at var11 485)))
(assert (= "A" (str.at var25 614)))
(assert (= "x" (str.at var20 544)))
(assert (= "<" (str.at var59 92)))
(assert (= "M" (str.at var27 730)))
(assert (= "3" (str.at var13 797)))
(assert (= "%" (str.at var47 750)))
(assert (= "6" (str.at var39 461)))
(assert (= "&" (str.at var33 721)))
(assert (= "s" (str.at var27 372)))
(assert (= "a" (str.at var44 275)))
(assert (= "B" (str.at var11 217)))
(assert (= "I" (str.at var46 39)))
(assert (= "6" (str.at var5 234)))
(assert (= "Y" (str.at var49 787)))
(assert (= "E" (str.at var29 444)))
(assert (= "B" (str.at var43 13)))
(assert (= "n" (str.at var60 782)))
(assert (= "d" (str.at var4 413)))
(assert (= "O" (str.at var7 452)))
(assert (= "h" (str.at var60 185)))
(assert (= "c" (str.at var48 772)))
(assert (= "A" (str.at var39 654)))
(assert (= "'" (str.at var59 397)))
(assert (= "L" (str.at var38 936)))
(assert (= "o" (str.at var57 814)))
(assert (= "3" (str.at var19 426)))
(assert (= "[" (str.at var25 639)))
(assert (= "$" (str.at var47 737)))
(assert (= "E" (str.at var6 296)))
(assert (= "\\" (str.at var21 721)))
(assert (= "N" (str.at var59 756)))
(assert (= "," (str.at var5 134)))
(assert (= "i" (str.at var34 720)))
(assert (= "T" (str.at var15 401)))
(assert (= "$" (str.at var11 956)))
(assert (= "B" (str.at var30 236)))
(assert (= "M" (str.at var18 175)))
(assert (= "/" (str.at var8 543)))
(assert (= "Z" (str.at var40 188)))
(assert (= "~" (str.at var17 691)))
(assert (= ":" (str.at var12 777)))
(assert (= "g" (str.at var17 619)))
(assert (= "^" (str.at var51 769)))
(assert (= "H" (str.at var33 838)))
(assert (= "m" (str.at var27 331)))
(assert (= ";" (str.at var14 142)))
(assert (= "]" (str.at var42 156)))
(assert (= "i" (str.at var0 484)))
(assert (= "R" (str.at var20 970)))
(assert (= "2" (str.at var15 564)))
(assert (= "T" (str.at var40 996)))
(assert (= "0" (str.at var55 538)))
(assert (= """" (str.at var32 776)))
(assert (= "}" (str.at var32 307)))
(assert (= """" (str.at var26 911)))
(assert (= "9" (str.at var38 712)))
(assert (= "s" (str.at var8 292)))
(assert (= ">" (str.at var45 516)))
(assert (= "E" (str.at var27 838)))
(assert (= "K" (str.at var27 841)))
(assert (= "/" (str.at var12 144)))
(assert (= "L" (str.at var46 51)))
(assert (= "m" (str.at var18 563)))
(assert (= "V" (str.at var28 201)))
(assert (= "G" (str.at var37 184)))
(assert (= "a" (str.at var4 550)))
(assert (= "L" (str.at var20 901)))
(assert (= "H" (str.at var1 465)))
(assert (= "d" (str.at var9 149)))
(assert (= "|" (str.at var1 653)))
(assert (= "7" (str.at var51 448)))
(assert (= "M" (str.at var25 29)))
(assert (= "N" (str.at var26 580)))
(assert (= "o" (str.at var36 197)))
(assert (= "O" (str.at var18 667)))
(assert (= "J" (str.at var18 279)))
(assert (= "Z" (str.at var50 13)))
(assert (= "<" (str.at var2 444)))
(assert (= "M" (str.at var32 22)))
(assert (= ";" (str.at var26 438)))
(assert (= "g" (str.at var11 101)))
(assert (= "q" (str.at var4 72)))
(assert (= "g" (str.at var40 265)))
(assert (= "-" (str.at var46 225)))
(assert (= "o" (str.at var16 623)))
(assert (= "K" (str.at var54 217)))
(assert (= "Z" (str.at var21 187)))
(assert (= "5" (str.at var59 132)))
(assert (= "%" (str.at var23 249)))
(assert (= "a" (str.at var30 523)))
(assert (= "g" (str.at var57 238)))
(assert (= "O" (str.at var35 518)))
(assert (= "t" (str.at var44 34)))
(assert (= "f" (str.at var30 602)))
(assert (= "{" (str.at var49 27)))
(assert (= "@" (str.at var53 866)))
(assert (= "?" (str.at var52 663)))
(assert (= "l" (str.at var18 733)))
(assert (= "y" (str.at var32 79)))
(assert (= "%" (str.at var18 133)))
(assert (= "\\" (str.at var8 19)))
(assert (= "z" (str.at var16 931)))
(assert (= "V" (str.at var59 501)))
(assert (= "L" (str.at var15 134)))
(assert (= "L" (str.at var9 91)))
(assert (= "b" (str.at var37 933)))
(assert (= "{" (str.at var11 388)))
(assert (= "O" (str.at var23 527)))
(assert (= "D" (str.at var58 371)))
(assert (= "}" (str.at var55 462)))
(assert (= "k" (str.at var26 212)))
(assert (= "@" (str.at var40 589)))
(assert (= "O" (str.at var0 444)))
(assert (= "O" (str.at var46 785)))
(assert (= "k" (str.at var37 541)))
(assert (= "$" (str.at var24 498)))
(assert (= "D" (str.at var1 586)))
(check-sat)
(get-model)